Sat 19 May 19:18:25 CEST 2018
CPXPARAM_TimeLimit                               45
CPXPARAM_Threads                                 1
CPXPARAM_MIP_Strategy_CallbackReducedLP          0
Tried aggregator 3 times.
MIP Presolve eliminated 264 rows and 257 columns.
MIP Presolve modified 895 coefficients.
Aggregator did 1584 substitutions.
Reduced MIP has 2399 rows, 1716 columns, and 5183 nonzeros.
Reduced MIP has 1514 binaries, 4 generals, 0 SOSs, and 169 indicators.
Presolve time = 0.02 sec. (16.59 ticks)
Found incumbent of value 8.000000 after 0.02 sec. (22.75 ticks)
Probing time = 0.02 sec. (19.58 ticks)
Tried aggregator 2 times.
Aggregator did 1050 substitutions.
Reduced MIP has 1349 rows, 666 columns, and 3083 nonzeros.
Reduced MIP has 464 binaries, 202 generals, 0 SOSs, and 169 indicators.
Presolve time = 0.00 sec. (4.12 ticks)
Probing time = 0.01 sec. (6.11 ticks)
Tried aggregator 1 time.
Reduced MIP has 1349 rows, 666 columns, and 3083 nonzeros.
Reduced MIP has 464 binaries, 202 generals, 0 SOSs, and 169 indicators.
Presolve time = 0.00 sec. (2.43 ticks)
Probing time = 0.00 sec. (2.95 ticks)
Clique table members: 3800.
MIP emphasis: balance optimality and feasibility.
MIP search method: dynamic search.
Parallel mode: none, using 1 thread.
Root relaxation solution time = 0.00 sec. (5.23 ticks)

        Nodes                                         Cuts/
   Node  Left     Objective  IInf  Best Integer    Best Bound    ItCnt     Gap

*     0+    0                            8.0000        0.0000           100.00%
      0     0        0.0000   292        8.0000        0.0000      117  100.00%
      0     0        0.0000    98        8.0000       Cuts: 2      123  100.00%
      0     0        0.0000    82        8.0000      Cuts: 70      147  100.00%
      0     0        0.0000    77        8.0000     Cuts: 152      172  100.00%
      0     0        0.0000   144        8.0000      Cuts: 52      186  100.00%
      0     0        0.0000    99        8.0000  Impl Bds: 12      189  100.00%
      0     0        0.0000   161        8.0000      Cuts: 46      233  100.00%
      0     2        0.0000    71        8.0000        0.0000      233  100.00%
Elapsed time = 0.19 sec. (213.30 ticks, tree = 0.01 MB, solutions = 1)
*    10+   10                            7.0000        0.0000           100.00%
*    20+   12                            4.0000        0.0000           100.00%
*    60    18      integral     0        3.0000        0.0000      815  100.00%

Implied bound cuts applied:  170
Zero-half cuts applied:  12

Root node processing (before b&c):
  Real time             =    0.19 sec. (213.39 ticks)
Sequential b&c:
  Real time             =    0.13 sec. (172.29 ticks)
                          ------------
Total (root+branch&cut) =    0.32 sec. (385.69 ticks)
  | W
L | 0 1 2 3 4 5 
----------------
0 | . 2 2 2 1 1 
1 | . 2 2 2 1 1 
2 | 3 3 . . 1 1 
3 | . . . . . . 
4 | . . . . . . 
5 | . . . . . . 
6 | . . . . . . 
7 | . . . . . . 

Boxes' corners:      (w,l)
    Box 1 is at 
        top left     (4,0)
        bottom right (5,2)

    Box 2 is at 
        top left     (1,0)
        bottom right (3,1)

    Box 3 is at 
        top left     (0,2)
        bottom right (1,2)

    Roll length used: 3
In 0.33 seconds
